c turning on binary mode checking
c parsing input formula with 202048 variables and 780970 clauses
c finished parsing, read 16966790 bytes from proof file
c detected empty clause; start verification via backward checking
c 11670 of 780970 clauses in core                            
c 15279 of 460538 lemmas in core using 199386 resolution steps
c 0 RAT lemmas in core; 1748 redundant literals in core lemmas
s VERIFIED
c verification time: 2.209 seconds
